119 48 011 1
1
711 113 1
667 114 1
538 115 1
570 116 1
626 117 1
605 118 1
514 119 1
529 108 1
606 109 1
532 110 1
626 111 1
690 112 1
464 113 1
781 114 1
637 115 1
589 116 1
592 117 1
557 118 1
590 119 1
583 108 1
508 109 1
562 110 1
564 111 1
558 112 1
604 113 1
551 114 1
503 115 1
520 116 1
625 117 1
778 118 1
671 119 1
667 108 1
624 109 1
681 110 1
641 111 1
539 112 1
543 113 1
473 114 1
572 115 1
455 116 1
662 117 1
554 118 1
629 119 1
604 108 1
726 109 1
737 110 1
679 111 1
657 112 1
1
1
1
1
1
1
1
1
1
1
1
1
1
1
1
1
1
1
1
1
1
1
1
1
1
1
1
1
1
1
1
1
1
1
1
1
1
1
1
1
1
1
1
1
1
1
1
1
1
1
1
1
1
1
1
1
1
1
1 9 528 21 582 33 666 45 603
1 10 605 22 507 34 623 46 725
1 11 531 23 561 35 680 47 736
1 12 625 24 563 36 640 48 678
1 13 689 25 557 37 538 49 656
1 2 710 14 463 26 603 38 542
1 3 666 15 780 27 550 39 472
1 4 537 16 636 28 502 40 571
1 5 569 17 588 29 519 41 454
1 6 625 18 591 30 624 42 661
1 7 604 19 556 31 777 43 553
1 8 513 20 589 32 670 44 628
